p cnf 230 660
c inputs: 1 2 3 4 5 6 7 8 9 10
c variables for gates: 11 ... 220
c outputs: 221 222 223 224 225 226 227 228 229 230
c random input: -1 2 -3 4 -5 6 7 -8 -9 -10
11 -1 -6 0
-11 1 0
-11 6 0
12 -2 -6 0
-12 2 0
-12 6 0
13 -3 -6 0
-13 3 0
-13 6 0
14 -4 -6 0
-14 4 0
-14 6 0
15 -5 -6 0
-15 5 0
-15 6 0
16 -1 -7 0
-16 1 0
-16 7 0
17 -2 -7 0
-17 2 0
-17 7 0
18 -3 -7 0
-18 3 0
-18 7 0
19 -4 -7 0
-19 4 0
-19 7 0
20 -5 -7 0
-20 5 0
-20 7 0
21 -1 -8 0
-21 1 0
-21 8 0
22 -2 -8 0
-22 2 0
-22 8 0
23 -3 -8 0
-23 3 0
-23 8 0
24 -4 -8 0
-24 4 0
-24 8 0
25 -5 -8 0
-25 5 0
-25 8 0
26 -1 -9 0
-26 1 0
-26 9 0
27 -2 -9 0
-27 2 0
-27 9 0
28 -3 -9 0
-28 3 0
-28 9 0
29 -4 -9 0
-29 4 0
-29 9 0
30 -5 -9 0
-30 5 0
-30 9 0
31 -1 -10 0
-31 1 0
-31 10 0
32 -2 -10 0
-32 2 0
-32 10 0
33 -3 -10 0
-33 3 0
-33 10 0
34 -4 -10 0
-34 4 0
-34 10 0
35 -5 -10 0
-35 5 0
-35 10 0
36 -12 -16 0
-36 12 0
-36 16 0
37 -12 16 0
-37 12 0
-37 -16 0
38 -16 12 0
-38 16 0
-38 -12 0
39 38 37 0
-39 -38 0
-39 -37 0
40 -17 -13 0
-40 17 0
-40 13 0
41 -13 -21 0
-41 13 0
-41 21 0
42 -17 -21 0
-42 17 0
-42 21 0
43 42 41 0
-43 -42 0
-43 -41 0
44 40 -43 0
-44 -40 0
-44 43 0
45 -17 21 0
-45 17 0
-45 -21 0
46 -21 17 0
-46 21 0
-46 -17 0
47 46 45 0
-47 -46 0
-47 -45 0
48 -13 -47 0
-48 13 0
-48 47 0
49 13 47 0
-49 -13 0
-49 -47 0
50 48 49 0
-50 -48 0
-50 -49 0
51 -14 -18 0
-51 14 0
-51 18 0
52 -14 -22 0
-52 14 0
-52 22 0
53 -22 -18 0
-53 22 0
-53 18 0
54 52 53 0
-54 -52 0
-54 -53 0
55 51 -54 0
-55 -51 0
-55 54 0
56 -18 22 0
-56 18 0
-56 -22 0
57 -22 18 0
-57 22 0
-57 -18 0
58 56 57 0
-58 -56 0
-58 -57 0
59 -14 -58 0
-59 14 0
-59 58 0
60 14 58 0
-60 -14 0
-60 -58 0
61 59 60 0
-61 -59 0
-61 -60 0
62 -19 -15 0
-62 19 0
-62 15 0
63 -15 -23 0
-63 15 0
-63 23 0
64 -19 -23 0
-64 19 0
-64 23 0
65 64 63 0
-65 -64 0
-65 -63 0
66 62 -65 0
-66 -62 0
-66 65 0
67 -19 23 0
-67 19 0
-67 -23 0
68 -23 19 0
-68 23 0
-68 -19 0
69 68 67 0
-69 -68 0
-69 -67 0
70 -15 -69 0
-70 15 0
-70 69 0
71 15 69 0
-71 -15 0
-71 -69 0
72 70 71 0
-72 -70 0
-72 -71 0
73 -24 -20 0
-73 24 0
-73 20 0
74 -20 24 0
-74 20 0
-74 -24 0
75 -24 20 0
-75 24 0
-75 -20 0
76 74 75 0
-76 -74 0
-76 -75 0
77 -36 50 0
-77 36 0
-77 -50 0
78 36 50 0
-78 -36 0
-78 -50 0
79 -36 -50 0
-79 36 0
-79 50 0
80 79 78 0
-80 -79 0
-80 -78 0
81 44 61 0
-81 -44 0
-81 -61 0
82 -44 61 0
-82 44 0
-82 -61 0
83 44 -61 0
-83 -44 0
-83 61 0
84 83 82 0
-84 -83 0
-84 -82 0
85 55 72 0
-85 -55 0
-85 -72 0
86 -31 72 0
-86 31 0
-86 -72 0
87 -31 55 0
-87 31 0
-87 -55 0
88 87 86 0
-88 -87 0
-88 -86 0
89 -88 85 0
-89 88 0
-89 -85 0
90 31 55 0
-90 -31 0
-90 -55 0
91 -31 -55 0
-91 31 0
-91 55 0
92 91 90 0
-92 -91 0
-92 -90 0
93 72 -92 0
-93 -72 0
-93 92 0
94 -72 92 0
-94 72 0
-94 -92 0
95 94 93 0
-95 -94 0
-95 -93 0
96 76 66 0
-96 -76 0
-96 -66 0
97 -32 76 0
-97 32 0
-97 -76 0
98 -32 66 0
-98 32 0
-98 -66 0
99 97 98 0
-99 -97 0
-99 -98 0
100 96 -99 0
-100 -96 0
-100 99 0
101 32 66 0
-101 -32 0
-101 -66 0
102 -32 -66 0
-102 32 0
-102 66 0
103 102 101 0
-103 -102 0
-103 -101 0
104 76 -103 0
-104 -76 0
-104 103 0
105 -76 103 0
-105 76 0
-105 -103 0
106 104 105 0
-106 -104 0
-106 -105 0
107 -25 -73 0
-107 25 0
-107 73 0
108 -25 -33 0
-108 25 0
-108 33 0
109 -33 -73 0
-109 33 0
-109 73 0
110 108 109 0
-110 -108 0
-110 -109 0
111 107 -110 0
-111 -107 0
-111 110 0
112 33 -73 0
-112 -33 0
-112 73 0
113 -33 73 0
-113 33 0
-113 -73 0
114 112 113 0
-114 -112 0
-114 -113 0
115 -25 -114 0
-115 25 0
-115 114 0
116 25 114 0
-116 -25 0
-116 -114 0
117 116 115 0
-117 -116 0
-117 -115 0
118 -77 84 0
-118 77 0
-118 -84 0
119 -26 84 0
-119 26 0
-119 -84 0
120 -26 -77 0
-120 26 0
-120 77 0
121 120 119 0
-121 -120 0
-121 -119 0
122 -121 118 0
-122 121 0
-122 -118 0
123 26 -77 0
-123 -26 0
-123 77 0
124 -26 77 0
-124 26 0
-124 -77 0
125 124 123 0
-125 -124 0
-125 -123 0
126 84 -125 0
-126 -84 0
-126 125 0
127 -84 125 0
-127 84 0
-127 -125 0
128 127 126 0
-128 -127 0
-128 -126 0
129 -81 95 0
-129 81 0
-129 -95 0
130 -27 95 0
-130 27 0
-130 -95 0
131 -27 -81 0
-131 27 0
-131 81 0
132 131 130 0
-132 -131 0
-132 -130 0
133 -132 129 0
-133 132 0
-133 -129 0
134 27 -81 0
-134 -27 0
-134 81 0
135 -27 81 0
-135 27 0
-135 -81 0
136 135 134 0
-136 -135 0
-136 -134 0
137 -136 95 0
-137 136 0
-137 -95 0
138 136 -95 0
-138 -136 0
-138 95 0
139 138 137 0
-139 -138 0
-139 -137 0
140 106 89 0
-140 -106 0
-140 -89 0
141 -28 106 0
-141 28 0
-141 -106 0
142 -28 89 0
-142 28 0
-142 -89 0
143 141 142 0
-143 -141 0
-143 -142 0
144 -143 140 0
-144 143 0
-144 -140 0
145 28 89 0
-145 -28 0
-145 -89 0
146 -28 -89 0
-146 28 0
-146 89 0
147 146 145 0
-147 -146 0
-147 -145 0
148 -147 106 0
-148 147 0
-148 -106 0
149 147 -106 0
-149 -147 0
-149 106 0
150 148 149 0
-150 -148 0
-150 -149 0
151 117 100 0
-151 -117 0
-151 -100 0
152 -29 117 0
-152 29 0
-152 -117 0
153 -29 100 0
-153 29 0
-153 -100 0
154 152 153 0
-154 -152 0
-154 -153 0
155 151 -154 0
-155 -151 0
-155 154 0
156 29 100 0
-156 -29 0
-156 -100 0
157 -29 -100 0
-157 29 0
-157 100 0
158 156 157 0
-158 -156 0
-158 -157 0
159 -158 117 0
-159 158 0
-159 -117 0
160 158 -117 0
-160 -158 0
-160 117 0
161 159 160 0
-161 -159 0
-161 -160 0
162 -34 111 0
-162 34 0
-162 -111 0
163 -34 -30 0
-163 34 0
-163 30 0
164 -30 111 0
-164 30 0
-164 -111 0
165 163 164 0
-165 -163 0
-165 -164 0
166 162 -165 0
-166 -162 0
-166 165 0
167 30 111 0
-167 -30 0
-167 -111 0
168 -30 -111 0
-168 30 0
-168 111 0
169 167 168 0
-169 -167 0
-169 -168 0
170 -34 -169 0
-170 34 0
-170 169 0
171 34 169 0
-171 -34 0
-171 -169 0
172 171 170 0
-172 -171 0
-172 -170 0
173 -122 139 0
-173 122 0
-173 -139 0
174 122 -139 0
-174 -122 0
-174 139 0
175 174 173 0
-175 -174 0
-175 -173 0
176 122 139 0
-176 -122 0
-176 -139 0
177 150 -133 0
-177 -150 0
-177 133 0
178 -150 133 0
-178 150 0
-178 -133 0
179 178 177 0
-179 -178 0
-179 -177 0
180 -179 -176 0
-180 179 0
-180 176 0
181 179 176 0
-181 -179 0
-181 -176 0
182 180 181 0
-182 -180 0
-182 -181 0
183 150 -176 0
-183 -150 0
-183 176 0
184 -176 133 0
-184 176 0
-184 -133 0
185 150 133 0
-185 -150 0
-185 -133 0
186 184 185 0
-186 -184 0
-186 -185 0
187 183 -186 0
-187 -183 0
-187 186 0
188 -144 161 0
-188 144 0
-188 -161 0
189 144 -161 0
-189 -144 0
-189 161 0
190 188 189 0
-190 -188 0
-190 -189 0
191 187 -190 0
-191 -187 0
-191 190 0
192 -187 190 0
-192 187 0
-192 -190 0
193 191 192 0
-193 -191 0
-193 -192 0
194 187 161 0
-194 -187 0
-194 -161 0
195 144 187 0
-195 -144 0
-195 -187 0
196 144 161 0
-196 -144 0
-196 -161 0
197 196 195 0
-197 -196 0
-197 -195 0
198 -197 194 0
-198 197 0
-198 -194 0
199 172 -155 0
-199 -172 0
-199 155 0
200 -172 155 0
-200 172 0
-200 -155 0
201 199 200 0
-201 -199 0
-201 -200 0
202 198 -201 0
-202 -198 0
-202 201 0
203 -198 201 0
-203 198 0
-203 -201 0
204 202 203 0
-204 -202 0
-204 -203 0
205 172 198 0
-205 -172 0
-205 -198 0
206 155 198 0
-206 -155 0
-206 -198 0
207 172 155 0
-207 -172 0
-207 -155 0
208 207 206 0
-208 -207 0
-208 -206 0
209 -208 205 0
-209 208 0
-209 -205 0
210 -35 -166 0
-210 35 0
-210 166 0
211 35 166 0
-211 -35 0
-211 -166 0
212 210 211 0
-212 -210 0
-212 -211 0
213 209 -212 0
-213 -209 0
-213 212 0
214 -209 212 0
-214 209 0
-214 -212 0
215 213 214 0
-215 -213 0
-215 -214 0
216 -35 209 0
-216 35 0
-216 -209 0
217 209 166 0
-217 -209 0
-217 -166 0
218 -35 166 0
-218 35 0
-218 -166 0
219 218 217 0
-219 -218 0
-219 -217 0
220 -219 216 0
-220 219 0
-220 -216 0
-221 11 0
221 -11 0
-222 -39 0
222 39 0
-223 -80 0
223 80 0
-224 -128 0
224 128 0
-225 -175 0
225 175 0
-226 -182 0
226 182 0
-227 -193 0
227 193 0
-228 -204 0
228 204 0
-229 -215 0
229 215 0
-230 -220 0
230 220 0
-221 0
222 0
223 0
224 0
225 0
-226 0
-227 0
-228 0
-229 0
-230 0
